19256
1 1 1 1 1 1 0 1 1 1 1 1 1 1 1 0 1 0 1 0 1 1 1 0 1 1 0 1 1 1
21 27 3 25 20 22 21 18 7 1 21 13 24 21 16 4 16 8 7 13 14 8 27 16 5 24 20 8 7 29 4 2 11 10 1 21 27 8 16 11 11 13 11 9 21 22 20 8 5 9 22 13 8 7 13 21 0 27 3 5 22 13 8 7 13 11 24 22 9 3 8 13 18 7 14 29 12 8 25 7 4 2 10 7 1 21 28 13 21 8 4 13 8 10 4 20 8 24 14 5 11 2 28 9 1 24 0 8 7 13 24 20 8 7 7 22 8 16 7 5 10 20 9 29 12 21 28 3 3 2 22 16 16 7 13 21 18 29 25 5 12 21 10 21 21 22 0 9 7 25